solution status: time limit reached
objective value:                                  212
C0155                                               1 	(obj:0)
C0029                                               1 	(obj:0)
C0032                                               1 	(obj:0)
C0037                                               1 	(obj:0)
C0043                                               1 	(obj:0)
C0050                                               1 	(obj:0)
C0054                                               1 	(obj:0)
C0058                                               1 	(obj:0)
C0065                                               1 	(obj:0)
C0071                                               1 	(obj:0)
C0074                                               1 	(obj:0)
C0081                                               1 	(obj:0)
C0086                                               1 	(obj:0)
C0088                                               1 	(obj:0)
C0096                                               1 	(obj:0)
C0098                                               1 	(obj:0)
C0102                                               1 	(obj:0)
C0107                                               1 	(obj:0)
C0114                                               1 	(obj:0)
C0121                                               1 	(obj:0)
C0123                                               1 	(obj:0)
C0127                                               1 	(obj:0)
C0135                                               1 	(obj:0)
C0140                                               1 	(obj:0)
C0146                                               1 	(obj:0)
C0149                                               1 	(obj:0)
C0001                                              11 	(obj:1)
C0002                                               9 	(obj:1)
C0003                                               8 	(obj:1)
C0004                                               7 	(obj:1)
C0005                                               7 	(obj:1)
C0006                                               8 	(obj:1)
C0007                                               9 	(obj:1)
C0008                                               8 	(obj:1)
C0009                                               4 	(obj:1)
C0010                                               7 	(obj:1)
C0011                                               7 	(obj:1)
C0012                                               7 	(obj:1)
C0013                                              10 	(obj:1)
C0014                                               7 	(obj:1)
C0015                                               8 	(obj:1)
C0016                                              10 	(obj:1)
C0017                                              10 	(obj:1)
C0018                                              11 	(obj:1)
C0019                                               8 	(obj:1)
C0020                                               8 	(obj:1)
C0021                                               9 	(obj:1)
C0022                                               8 	(obj:1)
C0023                                               9 	(obj:1)
C0024                                               5 	(obj:1)
C0025                                               7 	(obj:1)
C0026                                              10 	(obj:1)
